7446 234
1117 968
8495 9488
3261 8854
5202 4299
892 3702
829 6669
2441 3269
2933 6565
4089 981
4329 777
4596 6975
5664 7383
5088 3175
3226 2339
1243 8090
8350 4236
6187 318
6015 9520
2394 2775
1693 4482
898 7558
7509 5179
2747 9440
8024 1164
8924 8035
4500 4798
2296 488
6665 7990
931 4943
9234 8227
7705 8989
4102 8400
9177 261
1563 8237
5562 8289
4309 1093
2616 4437
5358 3248
2099 6789
4058 8183
895 9541
1780 1608
4301 3691
8887 7896
2820 429
8532 5087
8327 1158
9796 8808
6524 4779
